examples/dynamic/debug6/gj2007.c.i_4_3_3.bpl_5.smt2
(set-info :smt-lib-version 2.6)
(set-logic QF_NRA)
(set-info :source |
Generated by a component of the Ultimate program analysis framework [1] 
that implements a constraint-based synthesis of invariants [2].

This SMT script belongs to a set of SMT scripts that was generated by 
applying Ultimate to benchmarks [3] from the SV-COMP 2017 [4,5].

This script might _not_ contain all SMT commands that are used by 
Ultimate . In order to satisfy the restrictions of
the SMT-COMP we have to drop e.g., the commands for getting
values (resp. models), unsatisfiable cores and interpolants.

2017-05-01, Matthias Heizmann (heizmann@informatik.uni-freiburg.de)


[1] https://ultimate.informatik.uni-freiburg.de/
[2] Michael Colon, Sriram Sankaranarayanan, Henny Sipma: Linear Invariant 
Generation Using Non-linear Constraint Solving. CAV 2003: 420-432
[3] https://github.com/sosy-lab/sv-benchmarks
[4] Dirk Beyer: Software Verification with Validation of Results - 
(Report on SV-COMP 2017). TACAS (2) 2017: 331-349
[5] https://sv-comp.sosy-lab.org/2017/
|)
(set-info :license "https://creativecommons.org/licenses/by/4.0/")
(set-info :category "industrial")
(set-info :status unknown)
(declare-fun lp_0_0c () Real)
(declare-fun lp_0_0_ULTIMATE.start___VERIFIER_assert_~cond () Real)
(declare-fun lp_0_0_ULTIMATE.start_main_~x~4 () Real)
(declare-fun |lp_0_0_ULTIMATE.start___VERIFIER_assert_#in~cond| () Real)
(declare-fun lp_0_0_ULTIMATE.start_main_~y~4 () Real)
(declare-fun lp_0_1c () Real)
(declare-fun lp_0_1_ULTIMATE.start___VERIFIER_assert_~cond () Real)
(declare-fun lp_0_1_ULTIMATE.start_main_~x~4 () Real)
(declare-fun |lp_0_1_ULTIMATE.start___VERIFIER_assert_#in~cond| () Real)
(declare-fun lp_0_1_ULTIMATE.start_main_~y~4 () Real)
(declare-fun lp_0_2c () Real)
(declare-fun lp_0_2_ULTIMATE.start___VERIFIER_assert_~cond () Real)
(declare-fun lp_0_2_ULTIMATE.start_main_~x~4 () Real)
(declare-fun |lp_0_2_ULTIMATE.start___VERIFIER_assert_#in~cond| () Real)
(declare-fun lp_0_2_ULTIMATE.start_main_~y~4 () Real)
(declare-fun motzkin_615_0 () Real)
(assert (and (>= motzkin_615_0 0.0) (<= (* motzkin_615_0 (- 1.0)) 0.0) (or (< (* motzkin_615_0 (- 1.0)) 0.0) (> 0.0 0.0))))
(declare-fun motzkin_616_0 () Real)
(declare-fun motzkin_616_1 () Real)
(declare-fun motzkin_616_2 () Real)
(declare-fun motzkin_616_3 () Real)
(declare-fun motzkin_616_4 () Real)
(declare-fun motzkin_616_5 () Real)
(declare-fun motzkin_616_6 () Real)
(declare-fun motzkin_616_7 () Real)
(declare-fun motzkin_616_8 () Real)
(declare-fun motzkin_617_0 () Real)
(declare-fun motzkin_617_1 () Real)
(declare-fun motzkin_617_2 () Real)
(declare-fun motzkin_617_3 () Real)
(declare-fun motzkin_617_4 () Real)
(declare-fun motzkin_617_5 () Real)
(declare-fun motzkin_617_6 () Real)
(declare-fun motzkin_617_7 () Real)
(declare-fun motzkin_617_8 () Real)
(declare-fun motzkin_618_0 () Real)
(declare-fun motzkin_618_1 () Real)
(declare-fun motzkin_618_2 () Real)
(declare-fun motzkin_618_3 () Real)
(declare-fun motzkin_618_4 () Real)
(declare-fun motzkin_618_5 () Real)
(declare-fun motzkin_618_6 () Real)
(declare-fun motzkin_618_7 () Real)
(declare-fun motzkin_618_8 () Real)
(assert (and (>= motzkin_616_0 0.0) (>= motzkin_616_1 0.0) (>= motzkin_616_2 0.0) (>= motzkin_616_3 0.0) (>= motzkin_616_4 0.0) (>= motzkin_616_5 0.0) (>= motzkin_616_6 0.0) (>= motzkin_616_7 0.0) (>= motzkin_616_8 0.0) (= (+ (* motzkin_616_0 (- 1.0)) motzkin_616_3 (* motzkin_616_8 (+ (* (- 1.0) lp_0_0_ULTIMATE.start_main_~y~4) 0.0))) 0.0) (= (+ motzkin_616_1 (* motzkin_616_4 (- 1.0))) 0.0) (= (+ (* motzkin_616_1 (- 1.0)) motzkin_616_4 (* motzkin_616_8 (+ (* (- 1.0) lp_0_0_ULTIMATE.start___VERIFIER_assert_~cond) 0.0))) 0.0) (= (+ (* motzkin_616_2 (- 1.0)) motzkin_616_6 (* motzkin_616_8 (+ (* (- 1.0) lp_0_0_ULTIMATE.start_main_~x~4) 0.0))) 0.0) (= (+ motzkin_616_5 (* motzkin_616_7 (- 1.0))) 0.0) (= (+ (* motzkin_616_5 (- 1.0)) motzkin_616_7 (* motzkin_616_8 (+ (* (- 1.0) |lp_0_0_ULTIMATE.start___VERIFIER_assert_#in~cond|) 0.0))) 0.0) (<= (+ (* motzkin_616_0 50.0) (* motzkin_616_3 (- 50.0)) (* motzkin_616_8 (+ (* (- 1.0) lp_0_0c) 0.0))) 0.0) (or (< (+ (* motzkin_616_0 50.0) (* motzkin_616_3 (- 50.0))) 0.0) (> motzkin_616_8 0.0)) (>= motzkin_617_0 0.0) (>= motzkin_617_1 0.0) (>= motzkin_617_2 0.0) (>= motzkin_617_3 0.0) (>= motzkin_617_4 0.0) (>= motzkin_617_5 0.0) (>= motzkin_617_6 0.0) (>= motzkin_617_7 0.0) (>= motzkin_617_8 0.0) (= (+ (* motzkin_617_0 (- 1.0)) motzkin_617_3 (* motzkin_617_8 (+ (* (- 1.0) lp_0_1_ULTIMATE.start_main_~y~4) 0.0))) 0.0) (= (+ motzkin_617_1 (* motzkin_617_4 (- 1.0))) 0.0) (= (+ (* motzkin_617_1 (- 1.0)) motzkin_617_4 (* motzkin_617_8 (+ (* (- 1.0) lp_0_1_ULTIMATE.start___VERIFIER_assert_~cond) 0.0))) 0.0) (= (+ (* motzkin_617_2 (- 1.0)) motzkin_617_6 (* motzkin_617_8 (+ (* (- 1.0) lp_0_1_ULTIMATE.start_main_~x~4) 0.0))) 0.0) (= (+ motzkin_617_5 (* motzkin_617_7 (- 1.0))) 0.0) (= (+ (* motzkin_617_5 (- 1.0)) motzkin_617_7 (* motzkin_617_8 (+ (* (- 1.0) |lp_0_1_ULTIMATE.start___VERIFIER_assert_#in~cond|) 0.0))) 0.0) (<= (+ (* motzkin_617_0 50.0) (* motzkin_617_3 (- 50.0)) (* motzkin_617_8 (+ (* (- 1.0) lp_0_1c) 0.0))) 0.0) (or (< (+ (* motzkin_617_0 50.0) (* motzkin_617_3 (- 50.0))) 0.0) (> motzkin_617_8 0.0)) (>= motzkin_618_0 0.0) (>= motzkin_618_1 0.0) (>= motzkin_618_2 0.0) (>= motzkin_618_3 0.0) (>= motzkin_618_4 0.0) (>= motzkin_618_5 0.0) (>= motzkin_618_6 0.0) (>= motzkin_618_7 0.0) (>= motzkin_618_8 0.0) (= (+ (* motzkin_618_0 (- 1.0)) motzkin_618_3 (* motzkin_618_8 (+ (* (- 1.0) lp_0_2_ULTIMATE.start_main_~y~4) 0.0))) 0.0) (= (+ motzkin_618_1 (* motzkin_618_4 (- 1.0))) 0.0) (= (+ (* motzkin_618_1 (- 1.0)) motzkin_618_4 (* motzkin_618_8 (+ (* (- 1.0) lp_0_2_ULTIMATE.start___VERIFIER_assert_~cond) 0.0))) 0.0) (= (+ (* motzkin_618_2 (- 1.0)) motzkin_618_6 (* motzkin_618_8 (+ (* (- 1.0) lp_0_2_ULTIMATE.start_main_~x~4) 0.0))) 0.0) (= (+ motzkin_618_5 (* motzkin_618_7 (- 1.0))) 0.0) (= (+ (* motzkin_618_5 (- 1.0)) motzkin_618_7 (* motzkin_618_8 (+ (* (- 1.0) |lp_0_2_ULTIMATE.start___VERIFIER_assert_#in~cond|) 0.0))) 0.0) (<= (+ (* motzkin_618_0 50.0) (* motzkin_618_3 (- 50.0)) (* motzkin_618_8 (+ (* (- 1.0) lp_0_2c) 0.0))) 0.0) (or (< (+ (* motzkin_618_0 50.0) (* motzkin_618_3 (- 50.0))) 0.0) (> motzkin_618_8 0.0))))
(declare-fun motzkin_619_0 () Real)
(declare-fun motzkin_619_1 () Real)
(declare-fun motzkin_619_2 () Real)
(declare-fun motzkin_619_3 () Real)
(declare-fun motzkin_619_4 () Real)
(declare-fun motzkin_619_5 () Real)
(declare-fun motzkin_619_6 () Real)
(declare-fun motzkin_619_7 () Real)
(declare-fun motzkin_619_8 () Real)
(declare-fun motzkin_619_9 () Real)
(declare-fun motzkin_619_10 () Real)
(declare-fun motzkin_619_11 () Real)
(declare-fun motzkin_619_12 () Real)
(declare-fun motzkin_620_0 () Real)
(declare-fun motzkin_620_1 () Real)
(declare-fun motzkin_620_2 () Real)
(declare-fun motzkin_620_3 () Real)
(declare-fun motzkin_620_4 () Real)
(declare-fun motzkin_620_5 () Real)
(declare-fun motzkin_620_6 () Real)
(declare-fun motzkin_620_7 () Real)
(declare-fun motzkin_620_8 () Real)
(declare-fun motzkin_620_9 () Real)
(declare-fun motzkin_620_10 () Real)
(declare-fun motzkin_620_11 () Real)
(declare-fun motzkin_620_12 () Real)
(assert (and (>= motzkin_619_0 0.0) (>= motzkin_619_1 0.0) (>= motzkin_619_2 0.0) (>= motzkin_619_3 0.0) (>= motzkin_619_4 0.0) (>= motzkin_619_5 0.0) (>= motzkin_619_6 0.0) (>= motzkin_619_7 0.0) (>= motzkin_619_8 0.0) (>= motzkin_619_9 0.0) (>= motzkin_619_10 0.0) (>= motzkin_619_11 0.0) (>= motzkin_619_12 0.0) (= (+ motzkin_619_0 motzkin_619_2 (* motzkin_619_4 (- 1.0))) 0.0) (= (+ (* motzkin_619_0 (- 1.0)) motzkin_619_4 (* motzkin_619_10 (+ (* 1.0 lp_0_0_ULTIMATE.start_main_~x~4) 0.0)) (* motzkin_619_11 (+ (* 1.0 lp_0_1_ULTIMATE.start_main_~x~4) 0.0)) (* motzkin_619_12 (+ (* 1.0 lp_0_2_ULTIMATE.start_main_~x~4) 0.0))) 0.0) (= (+ (* motzkin_619_1 (- 1.0)) (* motzkin_619_8 (- 1.0)) motzkin_619_9) 0.0) (= (+ motzkin_619_3 (* motzkin_619_5 (- 1.0)) (* motzkin_619_6 (- 1.0)) motzkin_619_7) 0.0) (= (+ motzkin_619_5 (* motzkin_619_7 (- 1.0))) 0.0) (= (+ motzkin_619_8 (* motzkin_619_9 (- 1.0)) (* motzkin_619_10 (+ (* 1.0 lp_0_0_ULTIMATE.start_main_~y~4) 0.0)) (* motzkin_619_11 (+ (* 1.0 lp_0_1_ULTIMATE.start_main_~y~4) 0.0)) (* motzkin_619_12 (+ (* 1.0 lp_0_2_ULTIMATE.start_main_~y~4) 0.0))) 0.0) (= (+ (* motzkin_619_10 (+ (* 1.0 |lp_0_0_ULTIMATE.start___VERIFIER_assert_#in~cond|) 0.0)) (* motzkin_619_11 (+ (* 1.0 |lp_0_1_ULTIMATE.start___VERIFIER_assert_#in~cond|) 0.0)) (* motzkin_619_12 (+ (* 1.0 |lp_0_2_ULTIMATE.start___VERIFIER_assert_#in~cond|) 0.0))) 0.0) (= (+ (* motzkin_619_10 (+ (* 1.0 lp_0_0_ULTIMATE.start___VERIFIER_assert_~cond) 0.0)) (* motzkin_619_11 (+ (* 1.0 lp_0_1_ULTIMATE.start___VERIFIER_assert_~cond) 0.0)) (* motzkin_619_12 (+ (* 1.0 lp_0_2_ULTIMATE.start___VERIFIER_assert_~cond) 0.0))) 0.0) (<= (+ (* motzkin_619_0 (- 1.0)) (* motzkin_619_1 99.0) (* motzkin_619_2 (- 100.0)) motzkin_619_4 motzkin_619_8 (* motzkin_619_9 (- 1.0)) (* motzkin_619_10 (+ (* 1.0 lp_0_0c) 0.0)) (* motzkin_619_11 (+ (* 1.0 lp_0_1c) 0.0)) (* motzkin_619_12 (+ (* 1.0 lp_0_2c) 0.0))) 0.0) (or (< (+ (* motzkin_619_0 (- 1.0)) (* motzkin_619_1 99.0) (* motzkin_619_2 (- 100.0)) motzkin_619_4 motzkin_619_8 (* motzkin_619_9 (- 1.0)) (* motzkin_619_10 (+ (* 1.0 lp_0_0c) 0.0)) (* motzkin_619_11 (+ (* 1.0 lp_0_1c) 0.0)) (* motzkin_619_12 (+ (* 1.0 lp_0_2c) 0.0))) 0.0) (> 0.0 0.0)) (>= motzkin_620_0 0.0) (>= motzkin_620_1 0.0) (>= motzkin_620_2 0.0) (>= motzkin_620_3 0.0) (>= motzkin_620_4 0.0) (>= motzkin_620_5 0.0) (>= motzkin_620_6 0.0) (>= motzkin_620_7 0.0) (>= motzkin_620_8 0.0) (>= motzkin_620_9 0.0) (>= motzkin_620_10 0.0) (>= motzkin_620_11 0.0) (>= motzkin_620_12 0.0) (= (+ motzkin_620_0 motzkin_620_1 (* motzkin_620_3 (- 1.0))) 0.0) (= (+ (* motzkin_620_0 (- 1.0)) motzkin_620_3 (* motzkin_620_10 (+ (* 1.0 lp_0_0_ULTIMATE.start_main_~x~4) 0.0)) (* motzkin_620_11 (+ (* 1.0 lp_0_1_ULTIMATE.start_main_~x~4) 0.0)) (* motzkin_620_12 (+ (* 1.0 lp_0_2_ULTIMATE.start_main_~x~4) 0.0))) 0.0) (= (+ motzkin_620_2 (* motzkin_620_4 (- 1.0)) (* motzkin_620_5 (- 1.0)) motzkin_620_7) 0.0) (= (+ motzkin_620_4 (* motzkin_620_7 (- 1.0))) 0.0) (= (+ motzkin_620_6 (* motzkin_620_8 (- 1.0)) motzkin_620_9) 0.0) (= (+ motzkin_620_8 (* motzkin_620_9 (- 1.0)) (* motzkin_620_10 (+ (* 1.0 lp_0_0_ULTIMATE.start_main_~y~4) 0.0)) (* motzkin_620_11 (+ (* 1.0 lp_0_1_ULTIMATE.start_main_~y~4) 0.0)) (* motzkin_620_12 (+ (* 1.0 lp_0_2_ULTIMATE.start_main_~y~4) 0.0))) 0.0) (= (+ (* motzkin_620_10 (+ (* 1.0 |lp_0_0_ULTIMATE.start___VERIFIER_assert_#in~cond|) 0.0)) (* motzkin_620_11 (+ (* 1.0 |lp_0_1_ULTIMATE.start___VERIFIER_assert_#in~cond|) 0.0)) (* motzkin_620_12 (+ (* 1.0 |lp_0_2_ULTIMATE.start___VERIFIER_assert_#in~cond|) 0.0))) 0.0) (= (+ (* motzkin_620_10 (+ (* 1.0 lp_0_0_ULTIMATE.start___VERIFIER_assert_~cond) 0.0)) (* motzkin_620_11 (+ (* 1.0 lp_0_1_ULTIMATE.start___VERIFIER_assert_~cond) 0.0)) (* motzkin_620_12 (+ (* 1.0 lp_0_2_ULTIMATE.start___VERIFIER_assert_~cond) 0.0))) 0.0) (<= (+ (* motzkin_620_0 (- 1.0)) (* motzkin_620_1 (- 100.0)) motzkin_620_3 (* motzkin_620_6 (- 101.0)) motzkin_620_8 (* motzkin_620_9 (- 1.0)) (* motzkin_620_10 (+ (* 1.0 lp_0_0c) 0.0)) (* motzkin_620_11 (+ (* 1.0 lp_0_1c) 0.0)) (* motzkin_620_12 (+ (* 1.0 lp_0_2c) 0.0))) 0.0) (or (< (+ (* motzkin_620_0 (- 1.0)) (* motzkin_620_1 (- 100.0)) motzkin_620_3 (* motzkin_620_6 (- 101.0)) motzkin_620_8 (* motzkin_620_9 (- 1.0)) (* motzkin_620_10 (+ (* 1.0 lp_0_0c) 0.0)) (* motzkin_620_11 (+ (* 1.0 lp_0_1c) 0.0)) (* motzkin_620_12 (+ (* 1.0 lp_0_2c) 0.0))) 0.0) (> 0.0 0.0))))
(declare-fun motzkin_621_0 () Real)
(declare-fun motzkin_621_1 () Real)
(declare-fun motzkin_621_2 () Real)
(declare-fun motzkin_621_3 () Real)
(declare-fun motzkin_621_4 () Real)
(declare-fun motzkin_621_5 () Real)
(declare-fun motzkin_621_6 () Real)
(declare-fun motzkin_621_7 () Real)
(declare-fun motzkin_621_8 () Real)
(declare-fun motzkin_621_9 () Real)
(declare-fun motzkin_621_10 () Real)
(declare-fun motzkin_621_11 () Real)
(declare-fun motzkin_621_12 () Real)
(declare-fun motzkin_621_13 () Real)
(declare-fun motzkin_622_0 () Real)
(declare-fun motzkin_622_1 () Real)
(declare-fun motzkin_622_2 () Real)
(declare-fun motzkin_622_3 () Real)
(declare-fun motzkin_622_4 () Real)
(declare-fun motzkin_622_5 () Real)
(declare-fun motzkin_622_6 () Real)
(declare-fun motzkin_622_7 () Real)
(declare-fun motzkin_622_8 () Real)
(declare-fun motzkin_622_9 () Real)
(declare-fun motzkin_622_10 () Real)
(declare-fun motzkin_622_11 () Real)
(declare-fun motzkin_622_12 () Real)
(declare-fun motzkin_622_13 () Real)
(declare-fun motzkin_623_0 () Real)
(declare-fun motzkin_623_1 () Real)
(declare-fun motzkin_623_2 () Real)
(declare-fun motzkin_623_3 () Real)
(declare-fun motzkin_623_4 () Real)
(declare-fun motzkin_623_5 () Real)
(declare-fun motzkin_623_6 () Real)
(declare-fun motzkin_623_7 () Real)
(declare-fun motzkin_623_8 () Real)
(declare-fun motzkin_623_9 () Real)
(declare-fun motzkin_623_10 () Real)
(declare-fun motzkin_623_11 () Real)
(declare-fun motzkin_623_12 () Real)
(declare-fun motzkin_623_13 () Real)
(declare-fun motzkin_624_0 () Real)
(declare-fun motzkin_624_1 () Real)
(declare-fun motzkin_624_2 () Real)
(declare-fun motzkin_624_3 () Real)
(declare-fun motzkin_624_4 () Real)
(declare-fun motzkin_624_5 () Real)
(declare-fun motzkin_624_6 () Real)
(declare-fun motzkin_624_7 () Real)
(declare-fun motzkin_624_8 () Real)
(declare-fun motzkin_624_9 () Real)
(declare-fun motzkin_624_10 () Real)
(declare-fun motzkin_624_11 () Real)
(declare-fun motzkin_624_12 () Real)
(declare-fun motzkin_625_0 () Real)
(declare-fun motzkin_625_1 () Real)
(declare-fun motzkin_625_2 () Real)
(declare-fun motzkin_625_3 () Real)
(declare-fun motzkin_625_4 () Real)
(declare-fun motzkin_625_5 () Real)
(declare-fun motzkin_625_6 () Real)
(declare-fun motzkin_625_7 () Real)
(declare-fun motzkin_625_8 () Real)
(declare-fun motzkin_625_9 () Real)
(declare-fun motzkin_625_10 () Real)
(declare-fun motzkin_625_11 () Real)
(declare-fun motzkin_625_12 () Real)
(declare-fun motzkin_626_0 () Real)
(declare-fun motzkin_626_1 () Real)
(declare-fun motzkin_626_2 () Real)
(declare-fun motzkin_626_3 () Real)
(declare-fun motzkin_626_4 () Real)
(declare-fun motzkin_626_5 () Real)
(declare-fun motzkin_626_6 () Real)
(declare-fun motzkin_626_7 () Real)
(declare-fun motzkin_626_8 () Real)
(declare-fun motzkin_626_9 () Real)
(declare-fun motzkin_626_10 () Real)
(declare-fun motzkin_626_11 () Real)
(declare-fun motzkin_626_12 () Real)
(assert (and (>= motzkin_621_0 0.0) (>= motzkin_621_1 0.0) (>= motzkin_621_2 0.0) (>= motzkin_621_3 0.0) (>= motzkin_621_4 0.0) (>= motzkin_621_5 0.0) (>= motzkin_621_6 0.0) (>= motzkin_621_7 0.0) (>= motzkin_621_8 0.0) (>= motzkin_621_9 0.0) (>= motzkin_621_10 0.0) (>= motzkin_621_11 0.0) (>= motzkin_621_12 0.0) (>= motzkin_621_13 0.0) (= (+ motzkin_621_0 (* motzkin_621_1 (- 1.0)) (* motzkin_621_10 (+ (* (- 1.0) lp_0_0_ULTIMATE.start_main_~y~4) 0.0))) 0.0) (= (+ (* motzkin_621_0 (- 1.0)) motzkin_621_1 (* motzkin_621_11 (+ (* 1.0 lp_0_0_ULTIMATE.start_main_~y~4) 0.0)) (* motzkin_621_12 (+ (* 1.0 lp_0_1_ULTIMATE.start_main_~y~4) 0.0)) (* motzkin_621_13 (+ (* 1.0 lp_0_2_ULTIMATE.start_main_~y~4) 0.0))) 0.0) (= (+ motzkin_621_2 (* motzkin_621_7 (- 1.0)) (* motzkin_621_11 (+ (* 1.0 lp_0_0_ULTIMATE.start___VERIFIER_assert_~cond) 0.0)) (* motzkin_621_12 (+ (* 1.0 lp_0_1_ULTIMATE.start___VERIFIER_assert_~cond) 0.0)) (* motzkin_621_13 (+ (* 1.0 lp_0_2_ULTIMATE.start___VERIFIER_assert_~cond) 0.0))) 0.0) (= (+ (* motzkin_621_2 (- 1.0)) motzkin_621_7 (* motzkin_621_10 (+ (* (- 1.0) lp_0_0_ULTIMATE.start___VERIFIER_assert_~cond) 0.0))) 0.0) (= (+ motzkin_621_3 (* motzkin_621_5 (- 1.0)) (* motzkin_621_11 (+ (* 1.0 |lp_0_0_ULTIMATE.start___VERIFIER_assert_#in~cond|) 0.0)) (* motzkin_621_12 (+ (* 1.0 |lp_0_1_ULTIMATE.start___VERIFIER_assert_#in~cond|) 0.0)) (* motzkin_621_13 (+ (* 1.0 |lp_0_2_ULTIMATE.start___VERIFIER_assert_#in~cond|) 0.0))) 0.0) (= (+ (* motzkin_621_3 (- 1.0)) motzkin_621_5 (* motzkin_621_10 (+ (* (- 1.0) |lp_0_0_ULTIMATE.start___VERIFIER_assert_#in~cond|) 0.0))) 0.0) (= (+ (* motzkin_621_4 (- 1.0)) (* motzkin_621_6 (- 1.0)) motzkin_621_9 (* motzkin_621_10 (+ (* (- 1.0) lp_0_0_ULTIMATE.start_main_~x~4) 0.0))) 0.0) (= (+ motzkin_621_4 motzkin_621_8 (* motzkin_621_9 (- 1.0)) (* motzkin_621_11 (+ (* 1.0 lp_0_0_ULTIMATE.start_main_~x~4) 0.0)) (* motzkin_621_12 (+ (* 1.0 lp_0_1_ULTIMATE.start_main_~x~4) 0.0)) (* motzkin_621_13 (+ (* 1.0 lp_0_2_ULTIMATE.start_main_~x~4) 0.0))) 0.0) (<= (+ (* motzkin_621_0 (- 1.0)) motzkin_621_1 motzkin_621_4 (* motzkin_621_6 99.0) (* motzkin_621_8 (- 50.0)) (* motzkin_621_9 (- 1.0)) (* motzkin_621_10 (+ (* (- 1.0) lp_0_0c) 0.0)) (* motzkin_621_11 (+ (* 1.0 lp_0_0c) 0.0)) (* motzkin_621_12 (+ (* 1.0 lp_0_1c) 0.0)) (* motzkin_621_13 (+ (* 1.0 lp_0_2c) 0.0))) 0.0) (or (< (+ (* motzkin_621_0 (- 1.0)) motzkin_621_1 motzkin_621_4 (* motzkin_621_6 99.0) (* motzkin_621_8 (- 50.0)) (* motzkin_621_9 (- 1.0)) (* motzkin_621_11 (+ (* 1.0 lp_0_0c) 0.0)) (* motzkin_621_12 (+ (* 1.0 lp_0_1c) 0.0)) (* motzkin_621_13 (+ (* 1.0 lp_0_2c) 0.0))) 0.0) (> motzkin_621_10 0.0)) (>= motzkin_622_0 0.0) (>= motzkin_622_1 0.0) (>= motzkin_622_2 0.0) (>= motzkin_622_3 0.0) (>= motzkin_622_4 0.0) (>= motzkin_622_5 0.0) (>= motzkin_622_6 0.0) (>= motzkin_622_7 0.0) (>= motzkin_622_8 0.0) (>= motzkin_622_9 0.0) (>= motzkin_622_10 0.0) (>= motzkin_622_11 0.0) (>= motzkin_622_12 0.0) (>= motzkin_622_13 0.0) (= (+ motzkin_622_0 (* motzkin_622_1 (- 1.0)) (* motzkin_622_10 (+ (* (- 1.0) lp_0_1_ULTIMATE.start_main_~y~4) 0.0))) 0.0) (= (+ (* motzkin_622_0 (- 1.0)) motzkin_622_1 (* motzkin_622_11 (+ (* 1.0 lp_0_0_ULTIMATE.start_main_~y~4) 0.0)) (* motzkin_622_12 (+ (* 1.0 lp_0_1_ULTIMATE.start_main_~y~4) 0.0)) (* motzkin_622_13 (+ (* 1.0 lp_0_2_ULTIMATE.start_main_~y~4) 0.0))) 0.0) (= (+ motzkin_622_2 (* motzkin_622_7 (- 1.0)) (* motzkin_622_11 (+ (* 1.0 lp_0_0_ULTIMATE.start___VERIFIER_assert_~cond) 0.0)) (* motzkin_622_12 (+ (* 1.0 lp_0_1_ULTIMATE.start___VERIFIER_assert_~cond) 0.0)) (* motzkin_622_13 (+ (* 1.0 lp_0_2_ULTIMATE.start___VERIFIER_assert_~cond) 0.0))) 0.0) (= (+ (* motzkin_622_2 (- 1.0)) motzkin_622_7 (* motzkin_622_10 (+ (* (- 1.0) lp_0_1_ULTIMATE.start___VERIFIER_assert_~cond) 0.0))) 0.0) (= (+ motzkin_622_3 (* motzkin_622_5 (- 1.0)) (* motzkin_622_11 (+ (* 1.0 |lp_0_0_ULTIMATE.start___VERIFIER_assert_#in~cond|) 0.0)) (* motzkin_622_12 (+ (* 1.0 |lp_0_1_ULTIMATE.start___VERIFIER_assert_#in~cond|) 0.0)) (* motzkin_622_13 (+ (* 1.0 |lp_0_2_ULTIMATE.start___VERIFIER_assert_#in~cond|) 0.0))) 0.0) (= (+ (* motzkin_622_3 (- 1.0)) motzkin_622_5 (* motzkin_622_10 (+ (* (- 1.0) |lp_0_1_ULTIMATE.start___VERIFIER_assert_#in~cond|) 0.0))) 0.0) (= (+ (* motzkin_622_4 (- 1.0)) (* motzkin_622_6 (- 1.0)) motzkin_622_9 (* motzkin_622_10 (+ (* (- 1.0) lp_0_1_ULTIMATE.start_main_~x~4) 0.0))) 0.0) (= (+ motzkin_622_4 motzkin_622_8 (* motzkin_622_9 (- 1.0)) (* motzkin_622_11 (+ (* 1.0 lp_0_0_ULTIMATE.start_main_~x~4) 0.0)) (* motzkin_622_12 (+ (* 1.0 lp_0_1_ULTIMATE.start_main_~x~4) 0.0)) (* motzkin_622_13 (+ (* 1.0 lp_0_2_ULTIMATE.start_main_~x~4) 0.0))) 0.0) (<= (+ (* motzkin_622_0 (- 1.0)) motzkin_622_1 motzkin_622_4 (* motzkin_622_6 99.0) (* motzkin_622_8 (- 50.0)) (* motzkin_622_9 (- 1.0)) (* motzkin_622_10 (+ (* (- 1.0) lp_0_1c) 0.0)) (* motzkin_622_11 (+ (* 1.0 lp_0_0c) 0.0)) (* motzkin_622_12 (+ (* 1.0 lp_0_1c) 0.0)) (* motzkin_622_13 (+ (* 1.0 lp_0_2c) 0.0))) 0.0) (or (< (+ (* motzkin_622_0 (- 1.0)) motzkin_622_1 motzkin_622_4 (* motzkin_622_6 99.0) (* motzkin_622_8 (- 50.0)) (* motzkin_622_9 (- 1.0)) (* motzkin_622_11 (+ (* 1.0 lp_0_0c) 0.0)) (* motzkin_622_12 (+ (* 1.0 lp_0_1c) 0.0)) (* motzkin_622_13 (+ (* 1.0 lp_0_2c) 0.0))) 0.0) (> motzkin_622_10 0.0)) (>= motzkin_623_0 0.0) (>= motzkin_623_1 0.0) (>= motzkin_623_2 0.0) (>= motzkin_623_3 0.0) (>= motzkin_623_4 0.0) (>= motzkin_623_5 0.0) (>= motzkin_623_6 0.0) (>= motzkin_623_7 0.0) (>= motzkin_623_8 0.0) (>= motzkin_623_9 0.0) (>= motzkin_623_10 0.0) (>= motzkin_623_11 0.0) (>= motzkin_623_12 0.0) (>= motzkin_623_13 0.0) (= (+ motzkin_623_0 (* motzkin_623_1 (- 1.0)) (* motzkin_623_10 (+ (* (- 1.0) lp_0_2_ULTIMATE.start_main_~y~4) 0.0))) 0.0) (= (+ (* motzkin_623_0 (- 1.0)) motzkin_623_1 (* motzkin_623_11 (+ (* 1.0 lp_0_0_ULTIMATE.start_main_~y~4) 0.0)) (* motzkin_623_12 (+ (* 1.0 lp_0_1_ULTIMATE.start_main_~y~4) 0.0)) (* motzkin_623_13 (+ (* 1.0 lp_0_2_ULTIMATE.start_main_~y~4) 0.0))) 0.0) (= (+ motzkin_623_2 (* motzkin_623_7 (- 1.0)) (* motzkin_623_11 (+ (* 1.0 lp_0_0_ULTIMATE.start___VERIFIER_assert_~cond) 0.0)) (* motzkin_623_12 (+ (* 1.0 lp_0_1_ULTIMATE.start___VERIFIER_assert_~cond) 0.0)) (* motzkin_623_13 (+ (* 1.0 lp_0_2_ULTIMATE.start___VERIFIER_assert_~cond) 0.0))) 0.0) (= (+ (* motzkin_623_2 (- 1.0)) motzkin_623_7 (* motzkin_623_10 (+ (* (- 1.0) lp_0_2_ULTIMATE.start___VERIFIER_assert_~cond) 0.0))) 0.0) (= (+ motzkin_623_3 (* motzkin_623_5 (- 1.0)) (* motzkin_623_11 (+ (* 1.0 |lp_0_0_ULTIMATE.start___VERIFIER_assert_#in~cond|) 0.0)) (* motzkin_623_12 (+ (* 1.0 |lp_0_1_ULTIMATE.start___VERIFIER_assert_#in~cond|) 0.0)) (* motzkin_623_13 (+ (* 1.0 |lp_0_2_ULTIMATE.start___VERIFIER_assert_#in~cond|) 0.0))) 0.0) (= (+ (* motzkin_623_3 (- 1.0)) motzkin_623_5 (* motzkin_623_10 (+ (* (- 1.0) |lp_0_2_ULTIMATE.start___VERIFIER_assert_#in~cond|) 0.0))) 0.0) (= (+ (* motzkin_623_4 (- 1.0)) (* motzkin_623_6 (- 1.0)) motzkin_623_9 (* motzkin_623_10 (+ (* (- 1.0) lp_0_2_ULTIMATE.start_main_~x~4) 0.0))) 0.0) (= (+ motzkin_623_4 motzkin_623_8 (* motzkin_623_9 (- 1.0)) (* motzkin_623_11 (+ (* 1.0 lp_0_0_ULTIMATE.start_main_~x~4) 0.0)) (* motzkin_623_12 (+ (* 1.0 lp_0_1_ULTIMATE.start_main_~x~4) 0.0)) (* motzkin_623_13 (+ (* 1.0 lp_0_2_ULTIMATE.start_main_~x~4) 0.0))) 0.0) (<= (+ (* motzkin_623_0 (- 1.0)) motzkin_623_1 motzkin_623_4 (* motzkin_623_6 99.0) (* motzkin_623_8 (- 50.0)) (* motzkin_623_9 (- 1.0)) (* motzkin_623_10 (+ (* (- 1.0) lp_0_2c) 0.0)) (* motzkin_623_11 (+ (* 1.0 lp_0_0c) 0.0)) (* motzkin_623_12 (+ (* 1.0 lp_0_1c) 0.0)) (* motzkin_623_13 (+ (* 1.0 lp_0_2c) 0.0))) 0.0) (or (< (+ (* motzkin_623_0 (- 1.0)) motzkin_623_1 motzkin_623_4 (* motzkin_623_6 99.0) (* motzkin_623_8 (- 50.0)) (* motzkin_623_9 (- 1.0)) (* motzkin_623_11 (+ (* 1.0 lp_0_0c) 0.0)) (* motzkin_623_12 (+ (* 1.0 lp_0_1c) 0.0)) (* motzkin_623_13 (+ (* 1.0 lp_0_2c) 0.0))) 0.0) (> motzkin_623_10 0.0)) (>= motzkin_624_0 0.0) (>= motzkin_624_1 0.0) (>= motzkin_624_2 0.0) (>= motzkin_624_3 0.0) (>= motzkin_624_4 0.0) (>= motzkin_624_5 0.0) (>= motzkin_624_6 0.0) (>= motzkin_624_7 0.0) (>= motzkin_624_8 0.0) (>= motzkin_624_9 0.0) (>= motzkin_624_10 0.0) (>= motzkin_624_11 0.0) (>= motzkin_624_12 0.0) (= (+ motzkin_624_0 (* motzkin_624_4 (- 1.0)) (* motzkin_624_10 (+ (* 1.0 lp_0_0_ULTIMATE.start___VERIFIER_assert_~cond) 0.0)) (* motzkin_624_11 (+ (* 1.0 lp_0_1_ULTIMATE.start___VERIFIER_assert_~cond) 0.0)) (* motzkin_624_12 (+ (* 1.0 lp_0_2_ULTIMATE.start___VERIFIER_assert_~cond) 0.0))) 0.0) (= (+ (* motzkin_624_0 (- 1.0)) motzkin_624_4 (* motzkin_624_9 (+ (* (- 1.0) lp_0_0_ULTIMATE.start___VERIFIER_assert_~cond) 0.0))) 0.0) (= (+ motzkin_624_1 (* motzkin_624_3 (- 1.0)) (* motzkin_624_10 (+ (* 1.0 |lp_0_0_ULTIMATE.start___VERIFIER_assert_#in~cond|) 0.0)) (* motzkin_624_11 (+ (* 1.0 |lp_0_1_ULTIMATE.start___VERIFIER_assert_#in~cond|) 0.0)) (* motzkin_624_12 (+ (* 1.0 |lp_0_2_ULTIMATE.start___VERIFIER_assert_#in~cond|) 0.0))) 0.0) (= (+ (* motzkin_624_1 (- 1.0)) motzkin_624_3 (* motzkin_624_9 (+ (* (- 1.0) |lp_0_0_ULTIMATE.start___VERIFIER_assert_#in~cond|) 0.0))) 0.0) (= (+ (* motzkin_624_2 (- 1.0)) motzkin_624_6 (* motzkin_624_9 (+ (* (- 1.0) lp_0_0_ULTIMATE.start_main_~x~4) 0.0))) 0.0) (= (+ motzkin_624_2 (* motzkin_624_5 (- 1.0)) (* motzkin_624_6 (- 1.0)) (* motzkin_624_10 (+ (* 1.0 lp_0_0_ULTIMATE.start_main_~x~4) 0.0)) (* motzkin_624_11 (+ (* 1.0 lp_0_1_ULTIMATE.start_main_~x~4) 0.0)) (* motzkin_624_12 (+ (* 1.0 lp_0_2_ULTIMATE.start_main_~x~4) 0.0))) 0.0) (= (+ (* motzkin_624_7 (- 1.0)) motzkin_624_8 (* motzkin_624_10 (+ (* 1.0 lp_0_0_ULTIMATE.start_main_~y~4) 0.0)) (* motzkin_624_11 (+ (* 1.0 lp_0_1_ULTIMATE.start_main_~y~4) 0.0)) (* motzkin_624_12 (+ (* 1.0 lp_0_2_ULTIMATE.start_main_~y~4) 0.0))) 0.0) (= (+ motzkin_624_7 (* motzkin_624_8 (- 1.0)) (* motzkin_624_9 (+ (* (- 1.0) lp_0_0_ULTIMATE.start_main_~y~4) 0.0))) 0.0) (<= (+ motzkin_624_2 (* motzkin_624_5 49.0) (* motzkin_624_6 (- 1.0)) (* motzkin_624_9 (+ (* (- 1.0) lp_0_0c) 0.0)) (* motzkin_624_10 (+ (* 1.0 lp_0_0c) 0.0)) (* motzkin_624_11 (+ (* 1.0 lp_0_1c) 0.0)) (* motzkin_624_12 (+ (* 1.0 lp_0_2c) 0.0))) 0.0) (or (< (+ motzkin_624_2 (* motzkin_624_5 49.0) (* motzkin_624_6 (- 1.0)) (* motzkin_624_10 (+ (* 1.0 lp_0_0c) 0.0)) (* motzkin_624_11 (+ (* 1.0 lp_0_1c) 0.0)) (* motzkin_624_12 (+ (* 1.0 lp_0_2c) 0.0))) 0.0) (> motzkin_624_9 0.0)) (>= motzkin_625_0 0.0) (>= motzkin_625_1 0.0) (>= motzkin_625_2 0.0) (>= motzkin_625_3 0.0) (>= motzkin_625_4 0.0) (>= motzkin_625_5 0.0) (>= motzkin_625_6 0.0) (>= motzkin_625_7 0.0) (>= motzkin_625_8 0.0) (>= motzkin_625_9 0.0) (>= motzkin_625_10 0.0) (>= motzkin_625_11 0.0) (>= motzkin_625_12 0.0) (= (+ motzkin_625_0 (* motzkin_625_4 (- 1.0)) (* motzkin_625_10 (+ (* 1.0 lp_0_0_ULTIMATE.start___VERIFIER_assert_~cond) 0.0)) (* motzkin_625_11 (+ (* 1.0 lp_0_1_ULTIMATE.start___VERIFIER_assert_~cond) 0.0)) (* motzkin_625_12 (+ (* 1.0 lp_0_2_ULTIMATE.start___VERIFIER_assert_~cond) 0.0))) 0.0) (= (+ (* motzkin_625_0 (- 1.0)) motzkin_625_4 (* motzkin_625_9 (+ (* (- 1.0) lp_0_1_ULTIMATE.start___VERIFIER_assert_~cond) 0.0))) 0.0) (= (+ motzkin_625_1 (* motzkin_625_3 (- 1.0)) (* motzkin_625_10 (+ (* 1.0 |lp_0_0_ULTIMATE.start___VERIFIER_assert_#in~cond|) 0.0)) (* motzkin_625_11 (+ (* 1.0 |lp_0_1_ULTIMATE.start___VERIFIER_assert_#in~cond|) 0.0)) (* motzkin_625_12 (+ (* 1.0 |lp_0_2_ULTIMATE.start___VERIFIER_assert_#in~cond|) 0.0))) 0.0) (= (+ (* motzkin_625_1 (- 1.0)) motzkin_625_3 (* motzkin_625_9 (+ (* (- 1.0) |lp_0_1_ULTIMATE.start___VERIFIER_assert_#in~cond|) 0.0))) 0.0) (= (+ (* motzkin_625_2 (- 1.0)) motzkin_625_6 (* motzkin_625_9 (+ (* (- 1.0) lp_0_1_ULTIMATE.start_main_~x~4) 0.0))) 0.0) (= (+ motzkin_625_2 (* motzkin_625_5 (- 1.0)) (* motzkin_625_6 (- 1.0)) (* motzkin_625_10 (+ (* 1.0 lp_0_0_ULTIMATE.start_main_~x~4) 0.0)) (* motzkin_625_11 (+ (* 1.0 lp_0_1_ULTIMATE.start_main_~x~4) 0.0)) (* motzkin_625_12 (+ (* 1.0 lp_0_2_ULTIMATE.start_main_~x~4) 0.0))) 0.0) (= (+ (* motzkin_625_7 (- 1.0)) motzkin_625_8 (* motzkin_625_10 (+ (* 1.0 lp_0_0_ULTIMATE.start_main_~y~4) 0.0)) (* motzkin_625_11 (+ (* 1.0 lp_0_1_ULTIMATE.start_main_~y~4) 0.0)) (* motzkin_625_12 (+ (* 1.0 lp_0_2_ULTIMATE.start_main_~y~4) 0.0))) 0.0) (= (+ motzkin_625_7 (* motzkin_625_8 (- 1.0)) (* motzkin_625_9 (+ (* (- 1.0) lp_0_1_ULTIMATE.start_main_~y~4) 0.0))) 0.0) (<= (+ motzkin_625_2 (* motzkin_625_5 49.0) (* motzkin_625_6 (- 1.0)) (* motzkin_625_9 (+ (* (- 1.0) lp_0_1c) 0.0)) (* motzkin_625_10 (+ (* 1.0 lp_0_0c) 0.0)) (* motzkin_625_11 (+ (* 1.0 lp_0_1c) 0.0)) (* motzkin_625_12 (+ (* 1.0 lp_0_2c) 0.0))) 0.0) (or (< (+ motzkin_625_2 (* motzkin_625_5 49.0) (* motzkin_625_6 (- 1.0)) (* motzkin_625_10 (+ (* 1.0 lp_0_0c) 0.0)) (* motzkin_625_11 (+ (* 1.0 lp_0_1c) 0.0)) (* motzkin_625_12 (+ (* 1.0 lp_0_2c) 0.0))) 0.0) (> motzkin_625_9 0.0)) (>= motzkin_626_0 0.0) (>= motzkin_626_1 0.0) (>= motzkin_626_2 0.0) (>= motzkin_626_3 0.0) (>= motzkin_626_4 0.0) (>= motzkin_626_5 0.0) (>= motzkin_626_6 0.0) (>= motzkin_626_7 0.0) (>= motzkin_626_8 0.0) (>= motzkin_626_9 0.0) (>= motzkin_626_10 0.0) (>= motzkin_626_11 0.0) (>= motzkin_626_12 0.0) (= (+ motzkin_626_0 (* motzkin_626_4 (- 1.0)) (* motzkin_626_10 (+ (* 1.0 lp_0_0_ULTIMATE.start___VERIFIER_assert_~cond) 0.0)) (* motzkin_626_11 (+ (* 1.0 lp_0_1_ULTIMATE.start___VERIFIER_assert_~cond) 0.0)) (* motzkin_626_12 (+ (* 1.0 lp_0_2_ULTIMATE.start___VERIFIER_assert_~cond) 0.0))) 0.0) (= (+ (* motzkin_626_0 (- 1.0)) motzkin_626_4 (* motzkin_626_9 (+ (* (- 1.0) lp_0_2_ULTIMATE.start___VERIFIER_assert_~cond) 0.0))) 0.0) (= (+ motzkin_626_1 (* motzkin_626_3 (- 1.0)) (* motzkin_626_10 (+ (* 1.0 |lp_0_0_ULTIMATE.start___VERIFIER_assert_#in~cond|) 0.0)) (* motzkin_626_11 (+ (* 1.0 |lp_0_1_ULTIMATE.start___VERIFIER_assert_#in~cond|) 0.0)) (* motzkin_626_12 (+ (* 1.0 |lp_0_2_ULTIMATE.start___VERIFIER_assert_#in~cond|) 0.0))) 0.0) (= (+ (* motzkin_626_1 (- 1.0)) motzkin_626_3 (* motzkin_626_9 (+ (* (- 1.0) |lp_0_2_ULTIMATE.start___VERIFIER_assert_#in~cond|) 0.0))) 0.0) (= (+ (* motzkin_626_2 (- 1.0)) motzkin_626_6 (* motzkin_626_9 (+ (* (- 1.0) lp_0_2_ULTIMATE.start_main_~x~4) 0.0))) 0.0) (= (+ motzkin_626_2 (* motzkin_626_5 (- 1.0)) (* motzkin_626_6 (- 1.0)) (* motzkin_626_10 (+ (* 1.0 lp_0_0_ULTIMATE.start_main_~x~4) 0.0)) (* motzkin_626_11 (+ (* 1.0 lp_0_1_ULTIMATE.start_main_~x~4) 0.0)) (* motzkin_626_12 (+ (* 1.0 lp_0_2_ULTIMATE.start_main_~x~4) 0.0))) 0.0) (= (+ (* motzkin_626_7 (- 1.0)) motzkin_626_8 (* motzkin_626_10 (+ (* 1.0 lp_0_0_ULTIMATE.start_main_~y~4) 0.0)) (* motzkin_626_11 (+ (* 1.0 lp_0_1_ULTIMATE.start_main_~y~4) 0.0)) (* motzkin_626_12 (+ (* 1.0 lp_0_2_ULTIMATE.start_main_~y~4) 0.0))) 0.0) (= (+ motzkin_626_7 (* motzkin_626_8 (- 1.0)) (* motzkin_626_9 (+ (* (- 1.0) lp_0_2_ULTIMATE.start_main_~y~4) 0.0))) 0.0) (<= (+ motzkin_626_2 (* motzkin_626_5 49.0) (* motzkin_626_6 (- 1.0)) (* motzkin_626_9 (+ (* (- 1.0) lp_0_2c) 0.0)) (* motzkin_626_10 (+ (* 1.0 lp_0_0c) 0.0)) (* motzkin_626_11 (+ (* 1.0 lp_0_1c) 0.0)) (* motzkin_626_12 (+ (* 1.0 lp_0_2c) 0.0))) 0.0) (or (< (+ motzkin_626_2 (* motzkin_626_5 49.0) (* motzkin_626_6 (- 1.0)) (* motzkin_626_10 (+ (* 1.0 lp_0_0c) 0.0)) (* motzkin_626_11 (+ (* 1.0 lp_0_1c) 0.0)) (* motzkin_626_12 (+ (* 1.0 lp_0_2c) 0.0))) 0.0) (> motzkin_626_9 0.0))))
(check-sat)
(exit)
