z3_origin/gj2007.c.i_4_3_3.bpl_5.txt
timeout
(:max-memory   96.41
 :memory       94.32
 :num-allocs   121503642533.00
 :rlimit-count 4004138737
 :time         1199.98
 :total-time   1197.18)
